\ENCODING=ISO-8859-1
\Problem name: ilog.cplex

Maximize
 obj: 655 x(0)#0 + 627 x(1)#1 + 1025 x(2)#2 + 807 x(3)#3 + 418 x(4)#4
      + 620 x(5)#5 + 670 x(6)#6 + 895 x(7)#7 + 619 x(8)#8 + 671 x(9)#9
      + 930 x(10)#10 + 424 x(11)#11 + 713 x(12)#12 + 618 x(13)#13
      + 559 x(14)#14 + 765 x(15)#15 + 803 x(16)#16 + 643 x(17)#17
      + 940 x(18)#18 + 524 x(19)#19 + 902 x(20)#20 + 891 x(21)#21
      + 936 x(22)#22 + 623 x(23)#23 + 1022 x(24)#24 + 548 x(25)#25
      + 626 x(26)#26 + 757 x(27)#27 + 1122 x(28)#28 + 866 x(29)#29
      + 1118 x(30)#30 + 566 x(31)#31 + 624 x(32)#32 + 555 x(33)#33
      + 303 x(34)#34 + 883 x(35)#35 + 874 x(36)#36 + 801 x(37)#37
      + 1035 x(38)#38 + 703 x(39)#39 + 685 x(40)#40 + 301 x(41)#41
      + 533 x(42)#42 + 623 x(43)#43 + 989 x(44)#44 + 992 x(45)#45
      + 1021 x(46)#46 + 863 x(47)#47 + 788 x(48)#48 + 690 x(49)#49
      + 1080 x(50)#50 + 1037 x(51)#51 + 921 x(52)#52 + 758 x(53)#53
      + 1007 x(54)#54 + 716 x(55)#55 + 809 x(56)#56 + 727 x(57)#57
      + 1067 x(58)#58 + 915 x(59)#59 + 499 x(60)#60 + 744 x(61)#61
      + 505 x(62)#62 + 738 x(63)#63 + 741 x(64)#64 + 859 x(65)#65
      + 774 x(66)#66 + 787 x(67)#67 + 606 x(68)#68 + 790 x(69)#69
      + 430 x(70)#70 + 519 x(71)#71 + 681 x(72)#72 + 905 x(73)#73
      + 448 x(74)#74 + 623 x(75)#75 + 645 x(76)#76 + 688 x(77)#77
      + 607 x(78)#78 + 395 x(79)#79 + 713 x(80)#80 + 455 x(81)#81
      + 653 x(82)#82 + 823 x(83)#83 + 511 x(84)#84 + 740 x(85)#85
      + 821 x(86)#86 + 910 x(87)#87 + 708 x(88)#88 + 982 x(89)#89
      + 557 x(90)#90 + 737 x(91)#91 + 781 x(92)#92 + 566 x(93)#93
      + 648 x(94)#94 + 745 x(95)#95 + 627 x(96)#96 + 709 x(97)#97
      + 955 x(98)#98 + 909 x(99)#99
Subject To
 c1: 853 x(0)#0 + 339 x(1)#1 + 861 x(2)#2 + 343 x(3)#3 + 424 x(4)#4
     + 282 x(5)#5 + 830 x(6)#6 + 442 x(7)#7 + 222 x(8)#8 + 447 x(9)#9
     + 925 x(10)#10 + 139 x(11)#11 + 524 x(12)#12 + 606 x(13)#13 + 840 x(14)#14
     + 490 x(15)#15 + 39 x(16)#16 + 741 x(17)#17 + 926 x(18)#18 + 518 x(19)#19
     + 843 x(20)#20 + 425 x(21)#21 + 410 x(22)#22 + 788 x(23)#23 + 196 x(24)#24
     + 801 x(25)#25 + 255 x(26)#26 + 202 x(27)#27 + 285 x(28)#28 + 757 x(29)#29
     + 864 x(30)#30 + 673 x(31)#31 + 641 x(32)#32 + 212 x(33)#33 + 7 x(34)#34
     + 22 x(35)#35 + 596 x(36)#36 + 216 x(37)#37 + 761 x(38)#38 + 824 x(39)#39
     + 505 x(40)#40 + 83 x(41)#41 + 403 x(42)#42 + 687 x(43)#43 + 210 x(44)#44
     + 69 x(45)#45 + 271 x(46)#46 + 177 x(47)#47 + 49 x(48)#48 + 564 x(49)#49
     + 821 x(50)#50 + 923 x(51)#51 + 842 x(52)#52 + 347 x(53)#53 + 618 x(54)#54
     + 673 x(55)#55 + 596 x(56)#56 + 718 x(57)#57 + 785 x(58)#58 + 518 x(59)#59
     + 907 x(60)#60 + 170 x(61)#61 + 100 x(62)#62 + 58 x(63)#63 + 127 x(64)#64
     + 912 x(65)#65 + 344 x(66)#66 + 575 x(67)#67 + 538 x(68)#68 + 835 x(69)#69
     + 339 x(70)#70 + 130 x(71)#71 + 644 x(72)#72 + 886 x(73)#73 + 335 x(74)#74
     + 362 x(75)#75 + 271 x(76)#76 + 319 x(77)#77 + 116 x(78)#78 + 114 x(79)#79
     + 650 x(80)#80 + 801 x(81)#81 + 639 x(82)#82 + 141 x(83)#83 + 29 x(84)#84
     + 173 x(85)#85 + 421 x(86)#86 + 486 x(87)#87 + 849 x(88)#88 + 806 x(89)#89
     + 717 x(90)#90 + 525 x(91)#91 + 461 x(92)#92 + 231 x(93)#93 + 328 x(94)#94
     + 929 x(95)#95 + 136 x(96)#96 + 429 x(97)#97 + 369 x(98)#98 + 649 x(99)#99
     <= 36209
 c2: 265 x(0)#0 + 915 x(1)#1 + 629 x(2)#2 + 656 x(3)#3 + 640 x(4)#4
     + 721 x(5)#5 + 921 x(6)#6 + 636 x(7)#7 + 35 x(8)#8 + 756 x(9)#9
     + 46 x(10)#10 + 173 x(11)#11 + 56 x(12)#12 + 460 x(13)#13 + 93 x(14)#14
     + 741 x(15)#15 + 622 x(16)#16 + 200 x(17)#17 + 138 x(18)#18 + 20 x(19)#19
     + 890 x(20)#20 + 26 x(21)#21 + 779 x(22)#22 + 232 x(23)#23 + 858 x(24)#24
     + 242 x(25)#25 + 325 x(26)#26 + 807 x(27)#27 + 971 x(28)#28 + 787 x(29)#29
     + 475 x(30)#30 + 500 x(31)#31 + 962 x(32)#32 + 40 x(33)#33 + 437 x(34)#34
     + 923 x(35)#35 + 740 x(36)#36 + 716 x(37)#37 + 489 x(38)#38 + 285 x(39)#39
     + 767 x(40)#40 + 820 x(41)#41 + 173 x(42)#42 + 450 x(43)#43 + 965 x(44)#44
     + 813 x(45)#45 + 952 x(46)#46 + 666 x(47)#47 + 541 x(48)#48 + 604 x(49)#49
     + 531 x(50)#50 + 521 x(51)#51 + 511 x(52)#52 + 906 x(53)#53 + 363 x(54)#54
     + 718 x(55)#55 + 946 x(56)#56 + 388 x(57)#57 + 843 x(58)#58 + 130 x(59)#59
     + 24 x(60)#60 + 740 x(61)#61 + 108 x(62)#62 + 457 x(63)#63 + 212 x(64)#64
     + 977 x(65)#65 + 780 x(66)#66 + 906 x(67)#67 + 209 x(68)#68 + 190 x(69)#69
     + 191 x(70)#70 + 461 x(71)#71 + 130 x(72)#72 + 670 x(73)#73 + 120 x(74)#74
     + 265 x(75)#75 + 161 x(76)#76 + 627 x(77)#77 + 878 x(78)#78 + 628 x(79)#79
     + 568 x(80)#80 + 209 x(81)#81 + 871 x(82)#82 + 159 x(83)#83 + 521 x(84)#84
     + 397 x(85)#85 + 917 x(86)#86 + 671 x(87)#87 + 742 x(88)#88 + 500 x(89)#89
     + 378 x(90)#90 + 796 x(91)#91 + 936 x(92)#92 + 606 x(93)#93 + 381 x(94)#94
     + 918 x(95)#95 + 304 x(96)#96 + 839 x(97)#97 + 418 x(98)#98 + 268 x(99)#99
     <= 39711
 c3: 630 x(0)#0 + 569 x(1)#1 + 771 x(2)#2 + 85 x(3)#3 + 493 x(4)#4 + 579 x(5)#5
     + 257 x(6)#6 + 859 x(7)#7 + 211 x(8)#8 + 703 x(9)#9 + 896 x(10)#10
     + 179 x(11)#11 + 194 x(12)#12 + 718 x(13)#13 + 173 x(14)#14 + 325 x(15)#15
     + 744 x(16)#16 + 788 x(17)#17 + 481 x(18)#18 + 779 x(19)#19 + 662 x(20)#20
     + 755 x(21)#21 + 866 x(22)#22 + 387 x(23)#23 + 666 x(24)#24 + 897 x(25)#25
     + 462 x(26)#26 + 589 x(27)#27 + 925 x(28)#28 + 921 x(29)#29 + 855 x(30)#30
     + 364 x(31)#31 + 372 x(32)#32 + 466 x(33)#33 + 101 x(34)#34 + 684 x(35)#35
     + 87 x(36)#36 + 394 x(37)#37 + 622 x(38)#38 + 391 x(39)#39 + 932 x(40)#40
     + 336 x(41)#41 + 854 x(42)#42 + 943 x(43)#43 + 305 x(44)#44 + 948 x(45)#45
     + 895 x(46)#46 + 331 x(47)#47 + 91 x(48)#48 + 95 x(49)#49 + 990 x(50)#50
     + 874 x(51)#51 + 521 x(52)#52 + 281 x(53)#53 + 987 x(54)#54 + 177 x(55)#55
     + 959 x(56)#56 + 159 x(57)#57 + 647 x(58)#58 + 245 x(59)#59 + 395 x(60)#60
     + 865 x(61)#61 + 267 x(62)#62 + 231 x(63)#63 + 586 x(64)#64 + 532 x(65)#65
     + 412 x(66)#66 + 90 x(67)#67 + 849 x(68)#68 + 684 x(69)#69 + 537 x(70)#70
     + 245 x(71)#71 + 227 x(72)#72 + 551 x(73)#73 + 192 x(74)#74 + 617 x(75)#75
     + 189 x(76)#76 + 899 x(77)#77 + 467 x(78)#78 + 481 x(79)#79 + 954 x(80)#80
     + 61 x(81)#81 + 206 x(82)#82 + 557 x(83)#83 + 839 x(84)#84 + 246 x(85)#85
     + 165 x(86)#86 + 661 x(87)#87 + 342 x(88)#88 + 966 x(89)#89 + 288 x(90)#90
     + 734 x(91)#91 + 739 x(92)#92 + 189 x(93)#93 + 110 x(94)#94 + 134 x(95)#95
     + 209 x(96)#96 + 141 x(97)#97 + 226 x(98)#98 + 439 x(99)#99 <= 38244
 c4: 578 x(0)#0 + 593 x(1)#1 + 760 x(2)#2 + 261 x(3)#3 + 248 x(4)#4
     + 172 x(5)#5 + 246 x(6)#6 + 735 x(7)#7 + 70 x(8)#8 + 378 x(9)#9
     + 602 x(10)#10 + 464 x(11)#11 + 582 x(12)#12 + 231 x(13)#13 + 480 x(14)#14
     + 499 x(15)#15 + 537 x(16)#16 + 769 x(17)#17 + 32 x(18)#18 + 256 x(19)#19
     + 360 x(20)#20 + 854 x(21)#21 + 633 x(22)#22 + 512 x(23)#23 + 613 x(24)#24
     + 61 x(25)#25 + 280 x(26)#26 + 490 x(27)#27 + 728 x(28)#28 + 238 x(29)#29
     + 494 x(30)#30 + 475 x(31)#31 + 778 x(32)#32 + 681 x(33)#33 + 28 x(34)#34
     + 200 x(35)#35 + 468 x(36)#36 + 519 x(37)#37 + 640 x(38)#38 + 603 x(39)#39
     + 341 x(40)#40 + 146 x(41)#41 + 149 x(42)#42 + 959 x(43)#43 + 934 x(44)#44
     + 877 x(45)#45 + 291 x(46)#46 + 980 x(47)#47 + 166 x(48)#48 + 851 x(49)#49
     + 964 x(50)#50 + 832 x(51)#51 + 644 x(52)#52 + 161 x(53)#53 + 521 x(54)#54
     + 804 x(55)#55 + 375 x(56)#56 + 299 x(57)#57 + 184 x(58)#58 + 938 x(59)#59
     + 183 x(60)#60 + 959 x(61)#61 + 991 x(62)#62 + 479 x(63)#63 + 122 x(64)#64
     + 83 x(65)#65 + 357 x(66)#66 + 276 x(67)#67 + 142 x(68)#68 + 407 x(69)#69
     + 429 x(70)#70 + 364 x(71)#71 + 26 x(72)#72 + 307 x(73)#73 + 538 x(74)#74
     + 566 x(75)#75 + 594 x(76)#76 + 71 x(77)#77 + 713 x(78)#78 + 584 x(79)#79
     + 982 x(80)#80 + 836 x(81)#81 + 8 x(82)#82 + 951 x(83)#83 + 306 x(84)#84
     + 949 x(85)#85 + 386 x(86)#86 + 672 x(87)#87 + 20 x(88)#88 + 293 x(89)#89
     + 672 x(90)#90 + 342 x(91)#91 + 863 x(92)#92 + 239 x(93)#93 + 551 x(94)#94
     + 570 x(95)#95 + 682 x(96)#96 + 888 x(97)#97 + 899 x(98)#98 + 395 x(99)#99
     <= 36944
 c5: 543 x(0)#0 + 685 x(1)#1 + 191 x(2)#2 + 539 x(3)#3 + 84 x(4)#4 + 844 x(5)#5
     + 570 x(6)#6 + 109 x(7)#7 + 628 x(8)#8 + 612 x(9)#9 + 408 x(10)#10
     + 431 x(11)#11 + 874 x(12)#12 + 483 x(13)#13 + 30 x(14)#14 + 860 x(15)#15
     + 83 x(16)#16 + 83 x(17)#17 + 787 x(18)#18 + 254 x(19)#19 + 705 x(20)#20
     + 155 x(21)#21 + 335 x(22)#22 + 182 x(23)#23 + 375 x(24)#24 + 511 x(25)#25
     + 668 x(26)#26 + 403 x(27)#27 + 696 x(28)#28 + 760 x(29)#29 + 623 x(30)#30
     + 684 x(31)#31 + 262 x(32)#32 + 161 x(33)#33 + 165 x(34)#34 + 878 x(35)#35
     + 643 x(36)#36 + 158 x(37)#37 + 861 x(38)#38 + 796 x(39)#39 + 881 x(40)#40
     + 29 x(41)#41 + 402 x(42)#42 + 18 x(43)#43 + 202 x(44)#44 + 665 x(45)#45
     + 796 x(46)#46 + 263 x(47)#47 + 886 x(48)#48 + 618 x(49)#49 + 571 x(50)#50
     + 757 x(51)#51 + 528 x(52)#52 + 39 x(53)#53 + 508 x(54)#54 + 698 x(55)#55
     + 344 x(56)#56 + 471 x(57)#57 + 663 x(58)#58 + 780 x(59)#59 + 38 x(60)#60
     + 546 x(61)#61 + 167 x(62)#62 + 191 x(63)#63 + 907 x(64)#64 + 210 x(65)#65
     + 646 x(66)#66 + 279 x(67)#67 + 1000 x(68)#68 + 993 x(69)#69
     + 467 x(70)#70 + 364 x(71)#71 + 291 x(72)#72 + 417 x(73)#73 + 541 x(74)#74
     + 607 x(75)#75 + 653 x(76)#76 + 902 x(77)#77 + 820 x(78)#78 + 88 x(79)#79
     + 20 x(80)#80 + 180 x(81)#81 + 788 x(82)#82 + 461 x(83)#83 + 449 x(84)#84
     + 47 x(85)#85 + 201 x(86)#86 + 819 x(87)#87 + 481 x(88)#88 + 542 x(89)#89
     + 217 x(90)#90 + 501 x(91)#91 + 820 x(92)#92 + 207 x(93)#93 + 916 x(94)#94
     + 653 x(95)#95 + 639 x(96)#96 + 937 x(97)#97 + 828 x(98)#98 + 405 x(99)#99
     <= 37107
Bounds
 0 <= x(0)#0 <= 1
 0 <= x(1)#1 <= 1
 0 <= x(2)#2 <= 1
 0 <= x(3)#3 <= 1
 0 <= x(4)#4 <= 1
 0 <= x(5)#5 <= 1
 0 <= x(6)#6 <= 1
 0 <= x(7)#7 <= 1
 0 <= x(8)#8 <= 1
 0 <= x(9)#9 <= 1
 0 <= x(10)#10 <= 1
 0 <= x(11)#11 <= 1
 0 <= x(12)#12 <= 1
 0 <= x(13)#13 <= 1
 0 <= x(14)#14 <= 1
 0 <= x(15)#15 <= 1
 0 <= x(16)#16 <= 1
 0 <= x(17)#17 <= 1
 0 <= x(18)#18 <= 1
 0 <= x(19)#19 <= 1
 0 <= x(20)#20 <= 1
 0 <= x(21)#21 <= 1
 0 <= x(22)#22 <= 1
 0 <= x(23)#23 <= 1
 0 <= x(24)#24 <= 1
 0 <= x(25)#25 <= 1
 0 <= x(26)#26 <= 1
 0 <= x(27)#27 <= 1
 0 <= x(28)#28 <= 1
 0 <= x(29)#29 <= 1
 0 <= x(30)#30 <= 1
 0 <= x(31)#31 <= 1
 0 <= x(32)#32 <= 1
 0 <= x(33)#33 <= 1
 0 <= x(34)#34 <= 1
 0 <= x(35)#35 <= 1
 0 <= x(36)#36 <= 1
 0 <= x(37)#37 <= 1
 0 <= x(38)#38 <= 1
 0 <= x(39)#39 <= 1
 0 <= x(40)#40 <= 1
 0 <= x(41)#41 <= 1
 0 <= x(42)#42 <= 1
 0 <= x(43)#43 <= 1
 0 <= x(44)#44 <= 1
 0 <= x(45)#45 <= 1
 0 <= x(46)#46 <= 1
 0 <= x(47)#47 <= 1
 0 <= x(48)#48 <= 1
 0 <= x(49)#49 <= 1
 0 <= x(50)#50 <= 1
 0 <= x(51)#51 <= 1
 0 <= x(52)#52 <= 1
 0 <= x(53)#53 <= 1
 0 <= x(54)#54 <= 1
 0 <= x(55)#55 <= 1
 0 <= x(56)#56 <= 1
 0 <= x(57)#57 <= 1
 0 <= x(58)#58 <= 1
 0 <= x(59)#59 <= 1
 0 <= x(60)#60 <= 1
 0 <= x(61)#61 <= 1
 0 <= x(62)#62 <= 1
 0 <= x(63)#63 <= 1
 0 <= x(64)#64 <= 1
 0 <= x(65)#65 <= 1
 0 <= x(66)#66 <= 1
 0 <= x(67)#67 <= 1
 0 <= x(68)#68 <= 1
 0 <= x(69)#69 <= 1
 0 <= x(70)#70 <= 1
 0 <= x(71)#71 <= 1
 0 <= x(72)#72 <= 1
 0 <= x(73)#73 <= 1
 0 <= x(74)#74 <= 1
 0 <= x(75)#75 <= 1
 0 <= x(76)#76 <= 1
 0 <= x(77)#77 <= 1
 0 <= x(78)#78 <= 1
 0 <= x(79)#79 <= 1
 0 <= x(80)#80 <= 1
 0 <= x(81)#81 <= 1
 0 <= x(82)#82 <= 1
 0 <= x(83)#83 <= 1
 0 <= x(84)#84 <= 1
 0 <= x(85)#85 <= 1
 0 <= x(86)#86 <= 1
 0 <= x(87)#87 <= 1
 0 <= x(88)#88 <= 1
 0 <= x(89)#89 <= 1
 0 <= x(90)#90 <= 1
 0 <= x(91)#91 <= 1
 0 <= x(92)#92 <= 1
 0 <= x(93)#93 <= 1
 0 <= x(94)#94 <= 1
 0 <= x(95)#95 <= 1
 0 <= x(96)#96 <= 1
 0 <= x(97)#97 <= 1
 0 <= x(98)#98 <= 1
 0 <= x(99)#99 <= 1
Generals
 x(0)#0  x(1)#1  x(2)#2  x(3)#3  x(4)#4  x(5)#5  x(6)#6  x(7)#7  x(8)#8 
 x(9)#9  x(10)#10  x(11)#11  x(12)#12  x(13)#13  x(14)#14  x(15)#15  x(16)#16 
 x(17)#17  x(18)#18  x(19)#19  x(20)#20  x(21)#21  x(22)#22  x(23)#23 
 x(24)#24  x(25)#25  x(26)#26  x(27)#27  x(28)#28  x(29)#29  x(30)#30 
 x(31)#31  x(32)#32  x(33)#33  x(34)#34  x(35)#35  x(36)#36  x(37)#37 
 x(38)#38  x(39)#39  x(40)#40  x(41)#41  x(42)#42  x(43)#43  x(44)#44 
 x(45)#45  x(46)#46  x(47)#47  x(48)#48  x(49)#49  x(50)#50  x(51)#51 
 x(52)#52  x(53)#53  x(54)#54  x(55)#55  x(56)#56  x(57)#57  x(58)#58 
 x(59)#59  x(60)#60  x(61)#61  x(62)#62  x(63)#63  x(64)#64  x(65)#65 
 x(66)#66  x(67)#67  x(68)#68  x(69)#69  x(70)#70  x(71)#71  x(72)#72 
 x(73)#73  x(74)#74  x(75)#75  x(76)#76  x(77)#77  x(78)#78  x(79)#79 
 x(80)#80  x(81)#81  x(82)#82  x(83)#83  x(84)#84  x(85)#85  x(86)#86 
 x(87)#87  x(88)#88  x(89)#89  x(90)#90  x(91)#91  x(92)#92  x(93)#93 
 x(94)#94  x(95)#95  x(96)#96  x(97)#97  x(98)#98  x(99)#99 
End
